11
Pyridine (C5H5N), C2v, optimized geometry
N       0.000000     0.000000     1.395000
C       0.000000    -1.140000     0.700000
C       0.000000     1.140000     0.700000
C       0.000000    -1.196000    -0.685000
C       0.000000     1.196000    -0.685000
C       0.000000     0.000000    -1.380000
H       0.000000    -2.060000     1.300000
H       0.000000     2.060000     1.300000
H       0.000000    -2.150000    -1.180000
H       0.000000     2.150000    -1.180000
H       0.000000     0.000000    -2.460000
