94
4CzIPN (MMFF-optimized)
N    -0.032586   -3.965859    0.746836
C    -0.023243   -2.826492    0.532265
C    -0.011606   -1.407622    0.265058
C    -1.217001   -0.698063    0.077120
N    -2.450254   -1.407114    0.164523
C    -3.358108   -1.296738    1.207913
C    -3.295386   -0.593386    2.424846
C    -4.400165   -0.642146    3.278767
C    -5.526446   -1.384802    2.945885
C    -5.568463   -2.110331    1.752081
C    -4.465900   -2.076486    0.871739
C    -4.182572   -2.721546   -0.370418
C    -4.903049   -3.627961   -1.177426
C    -4.334274   -4.110879   -2.359176
C    -3.063452   -3.703812   -2.746641
C    -2.330492   -2.803389   -1.969017
C    -2.907313   -2.323033   -0.776198
C    -1.206568    0.703593   -0.152457
N    -2.428651    1.418448   -0.316124
C    -3.270475    1.312316   -1.413901
C    -3.135681    0.608540   -2.624725
C    -4.185002    0.662603   -3.545650
C    -5.326165    1.410765   -3.283252
C    -5.438768    2.136595   -2.094206
C    -4.393223    2.097461   -1.147047
C    -4.184513    2.741246    0.110460
C    -4.949355    3.651178    0.871364
C    -4.452764    4.131436    2.086275
C    -3.210418    3.718305    2.551814
C    -2.434915    2.814320    1.821004
C    -2.938854    2.336638    0.594573
C     0.011485    1.407447   -0.265097
C     0.023135    2.826321   -0.532326
N     0.032505    3.965689   -0.746914
C     1.217887    0.691621   -0.110361
N     2.451632    1.397580   -0.214202
C     2.973687    1.913383   -1.394945
C     2.473780    1.920235   -2.712641
C     3.261472    2.483921   -3.719862
C     4.511649    3.018179   -3.432731
C     5.004128    3.004842   -2.124853
C     4.227113    2.446382   -1.087404
C     4.429294    2.300825    0.318751
C     5.478202    2.665012    1.189937
C     5.357603    2.423259    2.561192
C     4.205401    1.840163    3.074304
C     3.152564    1.471660    2.232975
C     3.294943    1.684582    0.849519
C     1.205431   -0.697510    0.185637
N     2.427032   -1.409230    0.365799
C     3.333461   -1.700226   -0.643533
C     3.278267   -1.486782   -2.033112
C     4.379670   -1.860088   -2.807472
C     5.495110   -2.448375   -2.223893
C     5.529158   -2.690625   -0.847857
C     4.429819   -2.321599   -0.043447
C     4.139990   -2.466136    1.347397
C     4.848470   -3.028126    2.430981
C     4.275619   -3.039064    3.705738
C     3.012507   -2.498995    3.914784
C     2.291541   -1.931729    2.860701
C     2.872353   -1.927316    1.576598
H    -2.422254   -0.015189    2.706087
H    -4.378801   -0.088704    4.214908
H    -6.377981   -1.411076    3.621199
H    -6.445126   -2.703996    1.509147
H    -5.894951   -3.956204   -0.879992
H    -4.890424   -4.813360   -2.974975
H    -2.633149   -4.092235   -3.667099
H    -1.343548   -2.492010   -2.295097
H    -2.249571    0.026094   -2.851302
H    -4.108163    0.109021   -4.478794
H    -6.133920    1.441151   -4.010205
H    -6.325932    2.734551   -1.906102
H    -5.919292    3.984127    0.512967
H    -5.042707    4.836622    2.666507
H    -2.836228    4.104719    3.497298
H    -1.471629    2.498217    2.207655
H     1.504413    1.500567   -2.960734
H     2.890736    2.505850   -4.742287
H     5.111060    3.454455   -4.227946
H     5.980345    3.429777   -1.909205
H     6.374257    3.139289    0.799883
H     6.167962    2.702964    3.229727
H     4.122549    1.665167    4.144639
H     2.257949    1.025749    2.653207
H     2.413529   -1.036825   -2.508010
H     4.364289   -1.684748   -3.880837
H     6.344165   -2.731768   -2.840852
H     6.397078   -3.168925   -0.402960
H     5.834208   -3.457631    2.276255
H     4.822424   -3.478050    4.536569
H     2.578864   -2.519131    4.912196
H     1.310597   -1.507552    3.048207
