83
DMAC-DPS (MMFF-optimized)
C    -7.876968    1.341451   -2.096765
C    -6.983251    0.113752   -1.781475
C    -7.432087   -1.095680   -2.642371
C    -5.537018    0.462591   -2.160557
C    -5.226657    0.818838   -3.497156
C    -3.931076    1.144196   -3.891096
C    -2.910956    1.121537   -2.957271
C    -3.194552    0.773236   -1.636180
C    -4.502016    0.438161   -1.208062
N    -4.764691    0.082933    0.161737
C    -3.684470    0.063888    1.105823
C    -2.945859   -1.113351    1.309700
C    -1.890102   -1.132540    2.221217
C    -1.569619    0.033462    2.924537
S    -0.207797    0.002721    4.069152
O    -0.291528   -1.256498    4.786353
O    -0.198306    1.262908    4.789479
C     1.264682   -0.029461    3.070943
C     2.014266   -1.204953    2.969652
C     3.157787   -1.219262    2.170071
C     3.555613   -0.062209    1.479777
N     4.727300   -0.082475    0.651965
C     6.004164    0.257473    1.222323
C     6.121767    0.606984    2.589235
C     7.346470    0.941120    3.168392
C     8.492408    0.934950    2.393818
C     8.405413    0.594622    1.046213
C     7.171834    0.251831    0.437499
C     7.134124   -0.115702   -1.052481
C     7.669388    1.092715   -1.863972
C     8.055350   -1.343799   -1.272696
C     5.734546   -0.464908   -1.578031
C     5.563381   -0.822717   -2.939064
C     4.315184   -1.148439   -3.463927
C     3.204333   -1.124550   -2.640135
C     3.350468   -0.774701   -1.297275
C     4.606983   -0.439276   -0.737188
C     2.800321    1.115408    1.605328
C     1.656293    1.135761    2.403229
C    -2.305026    1.208614    2.745358
C    -3.360114    1.221755    1.832234
C    -6.093462   -0.256627    0.597995
C    -6.351141   -0.604628    1.945934
C    -7.628940   -0.938332    2.396313
C    -8.689049   -0.933236    1.507878
C    -8.463805   -0.594403    0.176005
C    -7.174130   -0.252089   -0.302874
H    -7.576519    2.210408   -1.497731
H    -8.935631    1.151938   -1.888593
H    -7.823874    1.637270   -3.150178
H    -7.362043   -0.892653   -3.716562
H    -6.812113   -1.977111   -2.435240
H    -8.473781   -1.378128   -2.454964
H    -6.004927    0.847193   -4.256940
H    -3.724770    1.414063   -4.923169
H    -1.894904    1.373744   -3.247702
H    -2.360975    0.770180   -0.939226
H    -3.203944   -2.012652    0.754768
H    -1.332100   -2.052815    2.378297
H     1.721525   -2.106783    3.502788
H     3.748056   -2.128626    2.079996
H     5.250326    0.625797    3.238535
H     7.396232    1.203822    4.221501
H     9.452424    1.192989    2.832351
H     9.326048    0.599675    0.466492
H     7.710137    0.888517   -2.939453
H     8.686351    1.375238   -1.570733
H     7.031611    1.974454   -1.722649
H     8.110940   -1.640823   -2.325645
H     9.086988   -1.154095   -0.956861
H     7.694707   -2.212057   -0.706780
H     6.415733   -0.852031   -3.614649
H     4.216191   -1.419535   -4.511433
H     2.223532   -1.377008   -3.033346
H     2.449554   -0.770722   -0.689864
H     3.114493    2.014091    1.079045
H     1.085378    2.056323    2.501086
H    -2.068955    2.111056    3.304894
H    -3.938173    2.130830    1.680922
H    -5.551171   -0.622562    2.681515
H    -7.786835   -1.199850    3.439005
H    -9.689094   -1.190948    1.845542
H    -9.319873   -0.600262   -0.495401
