82
DMAC-BP (MMFF-optimized)
C     7.961195   -2.086261   -1.238042
C     7.667719   -0.937601   -0.238287
C     8.954340   -0.593735    0.556751
C     6.605054   -1.426265    0.756054
C     6.865955   -2.563009    1.561960
C     5.935885   -3.044426    2.479900
C     4.719412   -2.400320    2.615989
C     4.441808   -1.280078    1.831741
C     5.367850   -0.770041    0.890002
N     5.052958    0.386373    0.093270
C     3.773095    1.017728    0.239277
C     2.687845    0.604196   -0.549245
C     1.440640    1.218247   -0.412265
C     1.267635    2.243594    0.525988
C    -0.037117    2.932225    0.694228
O    -0.052323    4.133522    0.949429
C    -1.323925    2.203281    0.561330
C    -2.422548    2.884936    0.023279
C    -3.652518    2.237278   -0.107225
C    -3.797461    0.906422    0.312161
N    -5.060892    0.239434    0.182379
C    -6.013233    0.309745    1.259332
C    -5.730086    1.045103    2.435614
C    -6.633747    1.129224    3.495488
C    -7.850650    0.477504    3.408612
C    -8.155349   -0.252515    2.262462
C    -7.252671   -0.350479    1.173684
C    -7.641055   -1.167968   -0.066196
C    -8.939695   -0.562069   -0.659605
C    -7.901435   -2.630492    0.379089
C    -6.571943   -1.184551   -1.167779
C    -6.809316   -1.901734   -2.367382
C    -5.872559   -1.945922   -3.396918
C    -4.672785   -1.272790   -3.253255
C    -4.418417   -0.561494   -2.080049
C    -5.351718   -0.500740   -1.017117
C    -2.698444    0.234480    0.870012
C    -1.467194    0.881204    1.000845
C     2.352154    2.674038    1.300364
C     3.598102    2.059240    1.162694
C     5.997709    0.911266   -0.857339
C     5.690741    2.054052   -1.634752
C     6.586580    2.583436   -2.564397
C     7.819324    1.982315   -2.743662
C     8.147556    0.857182   -1.991488
C     7.253194    0.303443   -1.041040
H     8.303846   -2.998334   -0.737282
H     8.744014   -1.823479   -1.957894
H     7.063057   -2.346455   -1.812362
H     8.769382    0.218174    1.271451
H     9.335008   -1.448894    1.125773
H     9.775187   -0.274388   -0.094572
H     7.812810   -3.092785    1.481214
H     6.165369   -3.917627    3.084374
H     3.983530   -2.761568    3.328902
H     3.474444   -0.806629    1.975767
H     2.825771   -0.192615   -1.276694
H     0.624586    0.898550   -1.054859
H    -2.322770    3.921226   -0.293854
H    -4.503594    2.766850   -0.528872
H    -4.788322    1.575630    2.550093
H    -6.380309    1.704764    4.381488
H    -8.563523    0.535117    4.226513
H    -9.121184   -0.752070    2.227122
H    -9.764715   -0.554938    0.061006
H    -8.778169    0.474418   -0.981794
H    -9.302393   -1.121216   -1.528971
H    -8.224421   -3.268449   -0.450812
H    -8.686689   -2.701929    1.139564
H    -6.994308   -3.079722    0.802780
H    -7.742611   -2.441407   -2.513765
H    -6.083884   -2.503466   -4.305222
H    -3.932020   -1.295238   -4.047627
H    -3.463579   -0.047057   -2.014269
H    -2.813265   -0.792326    1.210014
H    -0.640320    0.347758    1.462139
H     2.228923    3.489175    2.010851
H     4.438242    2.392109    1.767610
H     4.735845    2.562357   -1.528547
H     6.314698    3.463021   -3.141349
H     8.526329    2.384540   -3.463958
H     9.125370    0.409925   -2.157269
