24
S22 benzene dimer T-shape (#11, center-edge ~5.0 A)
C       1.396000     0.000000     0.000000
C       0.698000     1.209000     0.000000
C      -0.698000     1.209000     0.000000
C      -1.396000     0.000000     0.000000
C      -0.698000    -1.209000     0.000000
C       0.698000    -1.209000     0.000000
H       2.480000     0.000000     0.000000
H       1.240000     2.148000     0.000000
H      -1.240000     2.148000     0.000000
H      -2.480000     0.000000     0.000000
H      -1.240000    -2.148000     0.000000
H       1.240000    -2.148000     0.000000
C       0.000000     0.000000     5.000000
C       0.000000     1.209000     5.698000
C       0.000000     1.209000     7.094000
C       0.000000     0.000000     7.792000
C       0.000000    -1.209000     7.094000
C       0.000000    -1.209000     5.698000
H       0.000000     0.000000     3.916000
H       0.000000     2.148000     5.156000
H       0.000000     2.148000     7.636000
H       0.000000     0.000000     8.876000
H       0.000000    -2.148000     7.636000
H       0.000000    -2.148000     5.156000
