17
S22 benzene-methane (#12, methane above benzene at 3.72 A)
C       1.396000     0.000000     0.000000
C       0.698000     1.209000     0.000000
C      -0.698000     1.209000     0.000000
C      -1.396000     0.000000     0.000000
C      -0.698000    -1.209000     0.000000
C       0.698000    -1.209000     0.000000
H       2.480000     0.000000     0.000000
H       1.240000     2.148000     0.000000
H      -1.240000     2.148000     0.000000
H      -2.480000     0.000000     0.000000
H      -1.240000    -2.148000     0.000000
H       1.240000    -2.148000     0.000000
C       0.000000     0.000000     3.720000
H       0.629118     0.629118     4.080000
H      -0.629118    -0.629118     4.080000
H       0.629118    -0.629118     3.360000
H      -0.629118     0.629118     3.360000
