16
C2H6-C2H6 staggered, C-C centers separated by ~3.8 A in z
C    0.000    0.000   -0.750
C    0.000    0.000    0.750
H    1.026    0.000   -1.110
H   -0.513    0.890   -1.110
H   -0.513   -0.890   -1.110
H    1.026    0.000    1.110
H   -0.513    0.890    1.110
H   -0.513   -0.890    1.110
C    0.000    0.000    4.500
C    0.000    0.000    6.000
H    1.026    0.000    4.140
H   -0.513    0.890    4.140
H   -0.513   -0.890    4.140
H    1.026    0.000    6.360
H   -0.513    0.890    6.360
H   -0.513   -0.890    6.360
