24
Anthracene (C14H10), D2h, B3LYP/6-31G(d) optimized
C       0.000000    1.396000    1.230000
C       0.000000   -1.396000    1.230000
C       0.000000    0.000000    1.230000
C       0.000000    0.000000   -1.230000
C       0.000000    1.396000   -1.230000
C       0.000000   -1.396000   -1.230000
C       0.000000    2.430000    0.000000
C       0.000000   -2.430000    0.000000
C       0.000000    3.640000    0.745000
C       0.000000    3.640000   -0.745000
C       0.000000   -3.640000    0.745000
C       0.000000   -3.640000   -0.745000
C       0.000000    4.835000    1.435000
C       0.000000    4.835000   -1.435000
H       0.000000    2.430000    2.475000
H       0.000000   -2.430000    2.475000
H       0.000000    2.430000   -2.475000
H       0.000000   -2.430000   -2.475000
H       0.000000    5.781000    0.880000
H       0.000000    5.781000   -0.880000
H       0.000000   -5.781000    0.880000
H       0.000000   -5.781000   -0.880000
H       0.000000    4.835000    2.520000
H       0.000000    4.835000   -2.520000
