46
From Gaussian input
I 4.36999100 1.55135700 0.00026100
I -4.36991300 1.55131600 0.00007700
F 7.58623600 1.19695400 0.08814600
F 9.18089900 -0.94561000 0.08397400
C 5.63756000 -0.15206300 -0.00303000
N 2.77567400 3.93711800 0.00319900
C 7.02631700 -0.01125000 0.04205100
N -2.77550100 3.93702400 -0.00294700
C -0.72577600 5.24740200 -0.00118300
C 1.42137700 4.00150400 0.00164800
C 7.86418400 -1.12979100 0.03998800
C -5.63755100 -0.15205100 0.00321600
C 0.72590300 5.24742400 0.00056500
C -1.50882900 6.42288500 -0.00268300
C -0.68094500 2.77027900 -0.00019500
H -1.24795700 1.83840100 -0.00039500
C 0.68115100 2.77029900 0.00117200
H 1.24818500 1.83843500 0.00196000
C -1.42120800 4.00146000 -0.00145900
C -2.88853200 6.33201400 -0.00431600
H -3.51472700 7.22575300 -0.00554700
C -3.48037700 5.05374200 -0.00434100
H -4.57060000 4.94540700 -0.00552600
C 5.10250800 -1.44134400 -0.05041800
C 3.48050900 5.05386200 0.00389500
C 7.32192300 -2.41727600 -0.00760800
C -7.02632100 -0.01116100 -0.04127500
C -5.10253300 -1.44136900 0.04990900
C 1.50891500 6.42293400 0.00131000
H -1.03291200 7.40446100 -0.00260700
F 3.78471300 -1.62941900 -0.09449800
C 5.93269600 -2.56578900 -0.05290100
H 4.57073500 4.94556400 0.00517400
C 2.88862200 6.33211200 0.00303000
I 8.57559100 -4.10375900 -0.01104900
C -7.86423000 -1.12966700 -0.03930900
F -7.58620200 1.19708500 -0.08668200
F -3.78473100 -1.62951600 0.09342300
C -5.93276900 -2.56578100 0.05228700
H 1.03296500 7.40449300 0.00058200
F 5.37754500 -3.77339700 -0.09897300
H 3.51478500 7.22587500 0.00368900
C -7.32200500 -2.41719500 0.00758700
F -9.18095700 -0.94541700 -0.08269800
F -5.37764600 -3.77342900 0.09770200
I -8.57574300 -4.10362600 0.01089400
